NAME          
ROWS
 N  OBJ
 L  c1
 L  c2
 L  c3
 L  c4
COLUMNS
    MARKER    'MARKER'                 'INTORG'
    x[1]      c1        198
    x[1]      c2        661
    x[1]      c3        144
    x[1]      c4        121
    x[1]      OBJ       -23
    x[2]      c1        39
    x[2]      c2        959
    x[2]      c3        55
    x[2]      c4        662
    x[2]      OBJ       -764
    x[3]      c1        969
    x[3]      c2        66
    x[3]      c3        123
    x[3]      c4        298
    x[3]      OBJ       -985
    x[4]      c1        206
    x[4]      c2        15
    x[4]      c3        859
    x[4]      c4        333
    x[4]      OBJ       -351
    x[5]      c1        625
    x[5]      c2        954
    x[5]      c3        775
    x[5]      c4        989
    x[5]      OBJ       -413
    x[6]      c1        800
    x[6]      c2        444
    x[6]      c3        803
    x[6]      c4        130
    x[6]      OBJ       -69
    x[7]      c1        136
    x[7]      c2        635
    x[7]      c3        490
    x[7]      c4        306
    x[7]      OBJ       -381
    x[8]      c1        255
    x[8]      c2        209
    x[8]      c3        760
    x[8]      c4        515
    x[8]      OBJ       -238
    x[9]      c1        315
    x[9]      c2        34
    x[9]      c3        587
    x[9]      c4        65
    x[9]      OBJ       -218
    x[10]     c1        743
    x[10]     c2        741
    x[10]     c3        506
    x[10]     c4        169
    x[10]     OBJ       -629
    x[11]     c1        160
    x[11]     c2        196
    x[11]     c3        457
    x[11]     c4        53
    x[11]     OBJ       -525
    x[12]     c1        895
    x[12]     c2        535
    x[12]     c3        490
    x[12]     c4        119
    x[12]     OBJ       -432
    x[13]     c1        975
    x[13]     c2        406
    x[13]     c3        578
    x[13]     c4        663
    x[13]     OBJ       -213
    x[14]     c1        695
    x[14]     c2        505
    x[14]     c3        402
    x[14]     c4        766
    x[14]     OBJ       -451
    x[15]     c1        747
    x[15]     c2        327
    x[15]     c3        652
    x[15]     c4        72
    x[15]     OBJ       -497
    x[16]     c1        577
    x[16]     c2        578
    x[16]     c3        189
    x[16]     c4        355
    x[16]     OBJ       -806
    x[17]     c1        267
    x[17]     c2        82
    x[17]     c3        364
    x[17]     c4        16
    x[17]     OBJ       -589
    x[18]     c1        696
    x[18]     c2        747
    x[18]     c3        775
    x[18]     c4        118
    x[18]     OBJ       -539
    x[19]     c1        830
    x[19]     c2        671
    x[19]     c3        485
    x[19]     c4        772
    x[19]     OBJ       -806
    x[20]     c1        600
    x[20]     c2        412
    x[20]     c3        892
    x[20]     c4        138
    x[20]     OBJ       -987
    x[21]     c1        984
    x[21]     c2        320
    x[21]     c3        83
    x[21]     c4        953
    x[21]     OBJ       -686
    x[22]     c1        593
    x[22]     c2        841
    x[22]     c3        248
    x[22]     c4        487
    x[22]     OBJ       -951
    x[23]     c1        2
    x[23]     c2        301
    x[23]     c3        731
    x[23]     c4        272
    x[23]     OBJ       -921
    x[24]     c1        324
    x[24]     c2        225
    x[24]     c3        287
    x[24]     c4        367
    x[24]     OBJ       -210
    x[25]     c1        102
    x[25]     c2        66
    x[25]     c3        600
    x[25]     c4        691
    x[25]     OBJ       -716
    x[26]     c1        441
    x[26]     c2        320
    x[26]     c3        677
    x[26]     c4        379
    x[26]     OBJ       -805
    x[27]     c1        517
    x[27]     c2        555
    x[27]     c3        255
    x[27]     c4        855
    x[27]     OBJ       -904
    x[28]     c1        601
    x[28]     c2        279
    x[28]     c3        335
    x[28]     c4        176
    x[28]     OBJ       -323
    x[29]     c1        546
    x[29]     c2        98
    x[29]     c3        70
    x[29]     c4        583
    x[29]     OBJ       -613
    x[30]     c1        510
    x[30]     c2        841
    x[30]     c3        546
    x[30]     c4        868
    x[30]     OBJ       -865
    x[31]     c1        570
    x[31]     c2        870
    x[31]     c3        941
    x[31]     c4        365
    x[31]     OBJ       -659
    x[32]     c1        496
    x[32]     c2        811
    x[32]     c3        806
    x[32]     c4        881
    x[32]     OBJ       -701
    x[33]     c1        446
    x[33]     c2        78
    x[33]     c3        440
    x[33]     c4        715
    x[33]     OBJ       -523
    x[34]     c1        150
    x[34]     c2        978
    x[34]     c3        964
    x[34]     c4        639
    x[34]     OBJ       -783
    x[35]     c1        349
    x[35]     c2        970
    x[35]     c3        392
    x[35]     c4        454
    x[35]     OBJ       -667
    x[36]     c1        52
    x[36]     c2        713
    x[36]     c3        675
    x[36]     c4        1
    x[36]     OBJ       -637
    x[37]     c1        988
    x[37]     c2        188
    x[37]     c3        881
    x[37]     c4        748
    x[37]     OBJ       -776
    x[38]     c1        950
    x[38]     c2        221
    x[38]     c3        951
    x[38]     c4        550
    x[38]     OBJ       -465
    x[39]     c1        445
    x[39]     c2        357
    x[39]     c3        440
    x[39]     c4        658
    x[39]     OBJ       -275
    x[40]     c1        66
    x[40]     c2        868
    x[40]     c3        46
    x[40]     c4        616
    x[40]     OBJ       -518
    x[41]     c1        741
    x[41]     c2        308
    x[41]     c3        216
    x[41]     c4        633
    x[41]     OBJ       -956
    x[42]     c1        942
    x[42]     c2        484
    x[42]     c3        213
    x[42]     c4        112
    x[42]     OBJ       -441
    x[43]     c1        545
    x[43]     c2        292
    x[43]     c3        615
    x[43]     c4        365
    x[43]     OBJ       -710
    x[44]     c1        649
    x[44]     c2        550
    x[44]     c3        898
    x[44]     c4        907
    x[44]     OBJ       -329
    x[45]     c1        775
    x[45]     c2        590
    x[45]     c3        751
    x[45]     c4        535
    x[45]     OBJ       -929
RHS
    rhs       c1        11756
    rhs       c2        10650
    rhs       c3        11724
    rhs       c4        10235
RANGES
BOUNDS
 BV bounds    x[1]
 BV bounds    x[2]
 BV bounds    x[3]
 BV bounds    x[4]
 BV bounds    x[5]
 BV bounds    x[6]
 BV bounds    x[7]
 BV bounds    x[8]
 BV bounds    x[9]
 BV bounds    x[10]
 BV bounds    x[11]
 BV bounds    x[12]
 BV bounds    x[13]
 BV bounds    x[14]
 BV bounds    x[15]
 BV bounds    x[16]
 BV bounds    x[17]
 BV bounds    x[18]
 BV bounds    x[19]
 BV bounds    x[20]
 BV bounds    x[21]
 BV bounds    x[22]
 BV bounds    x[23]
 BV bounds    x[24]
 BV bounds    x[25]
 BV bounds    x[26]
 BV bounds    x[27]
 BV bounds    x[28]
 BV bounds    x[29]
 BV bounds    x[30]
 BV bounds    x[31]
 BV bounds    x[32]
 BV bounds    x[33]
 BV bounds    x[34]
 BV bounds    x[35]
 BV bounds    x[36]
 BV bounds    x[37]
 BV bounds    x[38]
 BV bounds    x[39]
 BV bounds    x[40]
 BV bounds    x[41]
 BV bounds    x[42]
 BV bounds    x[43]
 BV bounds    x[44]
 BV bounds    x[45]
ENDATA
